\ Generated by MPModelProtoExporter
\   Name             : 
\   Format           : Free
\   Constraints      : 6
\   Variables        : 18
\     Binary         : 18
\     Integer        : 0
\     Continuous     : 0
Minimize
 Obj: -200000 Constant +142000 x00 +132000 x01 +104000 x02 +110000 x10 +104000 x11 +93000 x12 +54000 x20 +59000 x21 +51000 x22 +62000 x30 +62000 x31 +59000 x32 +80000 x40 +75000 x41 +67000 x42 +20000 x50 +19000 x51 +22000 x52 
Subject to
 auto_c_000000000: +1 x00 +1 x01 +1 x02  = 1
 auto_c_000000001: +1 x10 +1 x11 +1 x12  = 1
 auto_c_000000002: +1 x20 +1 x21 +1 x22  = 1
 auto_c_000000003: +1 x30 +1 x31 +1 x32  = 1
 auto_c_000000004: +1 x40 +1 x41 +1 x42  = 1
 auto_c_000000005: +1 x50 +1 x51 +1 x52  = 1
Bounds
 1 <= Constant <= 1
 0 <= x00 <= 1
 0 <= x01 <= 1
 0 <= x02 <= 1
 0 <= x10 <= 1
 0 <= x11 <= 1
 0 <= x12 <= 1
 0 <= x20 <= 1
 0 <= x21 <= 1
 0 <= x22 <= 1
 0 <= x30 <= 1
 0 <= x31 <= 1
 0 <= x32 <= 1
 0 <= x40 <= 1
 0 <= x41 <= 1
 0 <= x42 <= 1
 0 <= x50 <= 1
 0 <= x51 <= 1
 0 <= x52 <= 1
Binaries
 x00
 x01
 x02
 x10
 x11
 x12
 x20
 x21
 x22
 x30
 x31
 x32
 x40
 x41
 x42
 x50
 x51
 x52
End
